# H2 molecule in a big box
#
# In this input file, the location of the information on this or that line
# is not important : a keyword is located by the parser, and the related
# information should follow. 
# The "#" symbol indicates the beginning of a comment : the remaining
# of the line will be skipped.

#Definition of the unit cell
acell 10 10 10    # The keyword "acell" refers to the
                  # lengths of the primitive vectors (in Bohr)
#rprim 1 0 0  0 1 0  0 0 1 # This line, defining orthogonal primitive vectors,
                           # is commented, because it is precisely the default value of rprim

#Definition of the atom types
ntypat 1          # There is only one type of atom
znucl 22           # The keyword "znucl" refers to the atomic number of the 
                  # possible type(s) of atom. The pseudopotential(s) 
                  # mentioned in the "files" file must correspond
                  # to the type(s) of atom. Here, the only type is Hydrogen.
                         

#Definition of the atoms
natom 100
typat
    1 1 1 1 1 1 1 1 1 1
    1 1 1 1 1 1 1 1 1 1
    1 1 1 1 1 1 1 1 1 1
    1 1 1 1 1 1 1 1 1 1
    1 1 1 1 1 1 1 1 1 1
    1 1 1 1 1 1 1 1 1 1
    1 1 1 1 1 1 1 1 1 1
    1 1 1 1 1 1 1 1 1 1
    1 1 1 1 1 1 1 1 1 1
    1 1 1 1 1 1 1 1 1 1
xcart
    0.022836757908 -0.762426774076 -0.333029478853
    0.675150786673 0.723422294565 0.786588587923
    0.94870346289 -0.794558724724 0.0368456360258
    -0.896975275218 -0.267849959023 -0.981880754226
    0.523707697426 0.244841292001 -0.889714751664
    0.567451329597 -0.235594910704 0.575945147201
    0.523453499453 0.66124127667 -0.423157953292
    -0.713885280674 0.381360160469 -0.207429657383
    0.000169650570272 -0.432722260163 -0.677780951875
    0.562548199936 -0.063578562273 0.535374265854
    -0.0514229696024 -0.258104075635 -0.760755463575
    0.0740001491488 0.0216238383796 0.289995369293
    0.281484753013 -0.432641850721 -0.114052610238
    -0.957820273164 -0.0730240095058 -0.98131396619
    -0.658503160044 -0.867592048779 0.119315572844
    0.699715992731 0.117639893058 -0.442690178902
    -0.179670405123 0.318836135332 0.0869967467141
    -0.466698735483 0.348417323669 -0.631137254289
    -0.310912499264 -0.550056547845 0.18447974962
    -0.640728425705 0.74630150391 0.072723103557
    0.460285387569 -0.774820253946 -0.572494071848
    0.231232255249 0.937537077771 0.194864447198
    -0.733679277031 -0.0569066454891 0.459470698486
    0.377414873815 0.269129648274 0.466757440675
    0.783576337511 -0.39081954913 -0.74793206263
    0.264536624713 -0.879885444028 -0.203008371706
    0.611735151773 0.316495717598 -0.102951896783
    0.767084465767 0.12802849631 -0.127688365228
    0.321542974207 0.561128172222 0.355072197104
    0.468257230968 -0.429612100523 -0.543695877587
    0.798466653664 0.87996007089 0.042789447285
    -0.360412893955 -0.594048417754 -0.208463635408
    0.211754338006 0.230166295574 0.0523109988966
    -0.396692776101 0.306124068243 -0.560407156244
    0.761492941972 0.811486573811 -0.880793834292
    0.962016663717 -0.834522310968 0.223816910775
    -0.120044196703 -0.811250972054 0.354783223362
    0.913117597398 -0.303464501716 -0.0521175246758
    -0.266482406687 0.702129509451 -0.446824977068
    0.0172679992557 -0.653152278433 0.846472738974
    0.423386737117 -0.565201851188 -0.122802278691
    -0.358580011479 0.534785134322 -0.206481526767
    -0.0639075565112 0.501975037274 -0.271613882122
    0.333426725878 -0.918297007499 0.584988786341
    -0.0854133602938 -0.911285908815 -0.0822920486528
    -0.602206548567 -0.407134905629 0.467940782695
    0.40152551748 0.890905588411 -0.520459177773
    -0.919235795706 -0.870939933304 -0.253909536452
    -0.261775472482 -0.977594035042 0.379235932503
    0.159556434964 0.139911548809 0.529845737073
    -0.965815430949 -0.629675725608 -0.705776635752
    -0.725648633292 -0.988404580927 0.175492788179
    -0.00321049976962 0.926277362718 0.788073840879
    -0.725827591464 0.0815647690484 -0.283347925112
    -0.718043581357 -0.0649080308981 0.165159480455
    0.390387989069 -0.483372213808 -0.541210202046
    -0.296714734211 0.621576533465 -0.00775517452909
    -0.899409889199 -0.135649819602 0.129458264613
    0.0094827501039 0.661839415618 0.348395550511
    0.555608794191 0.418899905579 0.243505131626
    0.1989600095 -0.696310675482 -0.13680563564
    0.862067366027 0.200960147957 -0.499413843475
    -0.507418957764 -0.750257308389 0.660068606513
    -0.218901281591 -0.948153977385 0.52517843373
    0.955369487516 0.243956702332 -0.917713163323
    0.585983092637 0.516460067558 -0.842996594065
    0.860350077106 -0.640582655628 0.593063995715
    0.714052757263 -0.251160321902 -0.2552264824
    -0.277700035032 -0.227527152847 -0.130013877248
    -0.885007983655 0.669028323338 -0.861370616306
    0.919867373817 -0.553248667412 0.160082827779
    0.464254444035 0.208195155107 -0.344345738672
    -0.164178733027 -0.969164415369 0.984757501266
    -0.33609646424 -0.234163340355 -0.26839526487
    0.0629989808695 0.748694005843 -0.678410489062
    -0.949732149484 0.858929983524 -0.980528066988
    -0.0688692637879 -0.887458856558 0.28575299683
    0.303228387921 0.0699148890692 -0.31400703992
    0.378099527242 0.291908710924 0.400186733468
    -0.670711026963 0.470635119538 -0.837098612688
    0.95119000898 -0.357276926261 0.0897236523456
    0.175214808311 0.03665275237 -0.680773354845
    -0.0456032209261 -0.950779125186 -0.494208223737
    -0.0325192923761 0.44926831808 -0.395863204834
    0.67426781988 -0.649024504884 0.218500919365
    -0.741261145822 -0.0159991458903 0.522738922511
    0.55744581842 0.0912795679274 -0.926324969784
    0.873139220405 0.0201851562988 -0.593548301208
    -0.814289875937 -0.896925816786 -0.883808425553
    0.477811000745 -0.331147449821 0.709966296519
    -0.340943213075 0.57423944827 -0.23982089169
    -0.0568970439961 -0.444365923989 0.556900948923
    -0.555396101212 -0.0968331985416 0.769884696907
    -0.687715567037 0.396754107089 -0.151066519471
    -0.30739884964 0.137432102771 0.52047110987
    0.57688586286 0.118866142143 -0.653382522299
    -0.90010970384 0.0702892011221 0.301208898929
    0.133029302266 0.926478030321 -0.0716798467492
    -0.572639085714 0.854171096255 0.769005816626
    0.968290559126 -0.448659957099 0.951269791176

#Definition of the planewave basis set
ecut 10.0         # Maximal plane-wave kinetic energy cut-off, in Hartree

#Definition of the k-point grid
kptopt 0          # Enter the k points manually 
nkpt 1            # Only one k point is needed for isolated system,
                  # taken by default to be 0.0 0.0 0.0

#Definition of the SCF procedure
nstep 5          # Maximal number of SCF cycles
toldfe 1.0d-12     # Will stop when, twice in a row, the difference 
                  # between two consecutive evaluations of total energy 
                  # differ by less than toldfe (in Hartree) 
                  # This value is way too large for most realistic studies of materials
diemac 2.0        # Although this is not mandatory, it is worth to
                  # precondition the SCF cycle. The model dielectric
                  # function used as the standard preconditioner
                  # is described in the "dielng" input variable section.
                  # Here, we follow the prescriptions for molecules 
                  # in a big box


## After modifying the following section, one might need to regenerate the pickle database with runtests.py -r
#%%<BEGIN TEST_INFO>
#%% [setup]
#%% executable = abinit
#%% [files]
#%% files_to_test = 
#%%   tbase1_1.out, tolnlines=  0, tolabs=  0.000e+00, tolrel=  0.000e+00
#%% psp_files =  01h.pspgth
#%% [paral_info]
#%% max_nprocs = 1
#%% [extra_info]
#%% authors = Unknown
#%% keywords = 
#%% description = H2 molecule in a big box
#%%<END TEST_INFO>
