# H2 molecule in a big box
#
# In this input file, the location of the information on this or that line
# is not important : a keyword is located by the parser, and the related
# information should follow. 
# The "#" symbol indicates the beginning of a comment : the remaining
# of the line will be skipped.

#Definition of the unit cell
acell 10 10 10    # The keyword "acell" refers to the
                  # lengths of the primitive vectors (in Bohr)
#rprim 1 0 0  0 1 0  0 0 1 # This line, defining orthogonal primitive vectors,
                           # is commented, because it is precisely the default value of rprim

#Definition of the atom types
ntypat 1          # There is only one type of atom
znucl 22           # The keyword "znucl" refers to the atomic number of the 
                  # possible type(s) of atom. The pseudopotential(s) 
                  # mentioned in the "files" file must correspond
                  # to the type(s) of atom. Here, the only type is Hydrogen.
                         

#Definition of the atoms
natom 256
typat
    1 1 1 1 1 1 1 1 1 1
    1 1 1 1 1 1 1 1 1 1
    1 1 1 1 1 1 1 1 1 1
    1 1 1 1 1 1 1 1 1 1
    1 1 1 1 1 1 1 1 1 1
    1 1 1 1 1 1 1 1 1 1
    1 1 1 1 1 1 1 1 1 1
    1 1 1 1 1 1 1 1 1 1
    1 1 1 1 1 1 1 1 1 1
    1 1 1 1 1 1 1 1 1 1
    1 1 1 1 1 1 1 1 1 1
    1 1 1 1 1 1 1 1 1 1
    1 1 1 1 1 1 1 1 1 1
    1 1 1 1 1 1 1 1 1 1
    1 1 1 1 1 1 1 1 1 1
    1 1 1 1 1 1 1 1 1 1
    1 1 1 1 1 1 1 1 1 1
    1 1 1 1 1 1 1 1 1 1
    1 1 1 1 1 1 1 1 1 1
    1 1 1 1 1 1 1 1 1 1
    1 1 1 1 1 1 1 1 1 1
    1 1 1 1 1 1 1 1 1 1
    1 1 1 1 1 1 1 1 1 1
    1 1 1 1 1 1 1 1 1 1
    1 1 1 1 1 1 1 1 1 1
    1 1 1 1 1 1
xcart
    0.022836757908 -0.762426774076 -0.333029478853
    0.675150786673 0.723422294565 0.786588587923
    0.94870346289 -0.794558724724 0.0368456360258
    -0.896975275218 -0.267849959023 -0.981880754226
    0.523707697426 0.244841292001 -0.889714751664
    0.567451329597 -0.235594910704 0.575945147201
    0.523453499453 0.66124127667 -0.423157953292
    -0.713885280674 0.381360160469 -0.207429657383
    0.000169650570272 -0.432722260163 -0.677780951875
    0.562548199936 -0.063578562273 0.535374265854
    -0.0514229696024 -0.258104075635 -0.760755463575
    0.0740001491488 0.0216238383796 0.289995369293
    0.281484753013 -0.432641850721 -0.114052610238
    -0.957820273164 -0.0730240095058 -0.98131396619
    -0.658503160044 -0.867592048779 0.119315572844
    0.699715992731 0.117639893058 -0.442690178902
    -0.179670405123 0.318836135332 0.0869967467141
    -0.466698735483 0.348417323669 -0.631137254289
    -0.310912499264 -0.550056547845 0.18447974962
    -0.640728425705 0.74630150391 0.072723103557
    0.460285387569 -0.774820253946 -0.572494071848
    0.231232255249 0.937537077771 0.194864447198
    -0.733679277031 -0.0569066454891 0.459470698486
    0.377414873815 0.269129648274 0.466757440675
    0.783576337511 -0.39081954913 -0.74793206263
    0.264536624713 -0.879885444028 -0.203008371706
    0.611735151773 0.316495717598 -0.102951896783
    0.767084465767 0.12802849631 -0.127688365228
    0.321542974207 0.561128172222 0.355072197104
    0.468257230968 -0.429612100523 -0.543695877587
    0.798466653664 0.87996007089 0.042789447285
    -0.360412893955 -0.594048417754 -0.208463635408
    0.211754338006 0.230166295574 0.0523109988966
    -0.396692776101 0.306124068243 -0.560407156244
    0.761492941972 0.811486573811 -0.880793834292
    0.962016663717 -0.834522310968 0.223816910775
    -0.120044196703 -0.811250972054 0.354783223362
    0.913117597398 -0.303464501716 -0.0521175246758
    -0.266482406687 0.702129509451 -0.446824977068
    0.0172679992557 -0.653152278433 0.846472738974
    0.423386737117 -0.565201851188 -0.122802278691
    -0.358580011479 0.534785134322 -0.206481526767
    -0.0639075565112 0.501975037274 -0.271613882122
    0.333426725878 -0.918297007499 0.584988786341
    -0.0854133602938 -0.911285908815 -0.0822920486528
    -0.602206548567 -0.407134905629 0.467940782695
    0.40152551748 0.890905588411 -0.520459177773
    -0.919235795706 -0.870939933304 -0.253909536452
    -0.261775472482 -0.977594035042 0.379235932503
    0.159556434964 0.139911548809 0.529845737073
    -0.965815430949 -0.629675725608 -0.705776635752
    -0.725648633292 -0.988404580927 0.175492788179
    -0.00321049976962 0.926277362718 0.788073840879
    -0.725827591464 0.0815647690484 -0.283347925112
    -0.718043581357 -0.0649080308981 0.165159480455
    0.390387989069 -0.483372213808 -0.541210202046
    -0.296714734211 0.621576533465 -0.00775517452909
    -0.899409889199 -0.135649819602 0.129458264613
    0.0094827501039 0.661839415618 0.348395550511
    0.555608794191 0.418899905579 0.243505131626
    0.1989600095 -0.696310675482 -0.13680563564
    0.862067366027 0.200960147957 -0.499413843475
    -0.507418957764 -0.750257308389 0.660068606513
    -0.218901281591 -0.948153977385 0.52517843373
    0.955369487516 0.243956702332 -0.917713163323
    0.585983092637 0.516460067558 -0.842996594065
    0.860350077106 -0.640582655628 0.593063995715
    0.714052757263 -0.251160321902 -0.2552264824
    -0.277700035032 -0.227527152847 -0.130013877248
    -0.885007983655 0.669028323338 -0.861370616306
    0.919867373817 -0.553248667412 0.160082827779
    0.464254444035 0.208195155107 -0.344345738672
    -0.164178733027 -0.969164415369 0.984757501266
    -0.33609646424 -0.234163340355 -0.26839526487
    0.0629989808695 0.748694005843 -0.678410489062
    -0.949732149484 0.858929983524 -0.980528066988
    -0.0688692637879 -0.887458856558 0.28575299683
    0.303228387921 0.0699148890692 -0.31400703992
    0.378099527242 0.291908710924 0.400186733468
    -0.670711026963 0.470635119538 -0.837098612688
    0.95119000898 -0.357276926261 0.0897236523456
    0.175214808311 0.03665275237 -0.680773354845
    -0.0456032209261 -0.950779125186 -0.494208223737
    -0.0325192923761 0.44926831808 -0.395863204834
    0.67426781988 -0.649024504884 0.218500919365
    -0.741261145822 -0.0159991458903 0.522738922511
    0.55744581842 0.0912795679274 -0.926324969784
    0.873139220405 0.0201851562988 -0.593548301208
    -0.814289875937 -0.896925816786 -0.883808425553
    0.477811000745 -0.331147449821 0.709966296519
    -0.340943213075 0.57423944827 -0.23982089169
    -0.0568970439961 -0.444365923989 0.556900948923
    -0.555396101212 -0.0968331985416 0.769884696907
    -0.687715567037 0.396754107089 -0.151066519471
    -0.30739884964 0.137432102771 0.52047110987
    0.57688586286 0.118866142143 -0.653382522299
    -0.90010970384 0.0702892011221 0.301208898929
    0.133029302266 0.926478030321 -0.0716798467492
    -0.572639085714 0.854171096255 0.769005816626
    0.968290559126 -0.448659957099 0.951269791176
    0.68888839943 -0.0839962212638 -0.0821449628796
    -0.597365677538 0.458196269291 0.977224010543
    0.817837712063 -0.119904735747 -0.624024990825
    -0.332174900523 0.763815178788 0.777362173797
    -0.141116839323 -0.106308420112 -0.981778351914
    -0.0708307419677 -0.715347930078 -0.512849310684
    0.805243640923 0.400712204697 0.412955760754
    0.328750325822 0.566554774142 0.0968300846624
    0.611588906041 -0.546627554619 0.186171647555
    0.752457929698 -0.00425255360708 -0.866204621492
    -0.850075326642 -0.517570992544 -0.525914565056
    -0.120482401631 -0.600417618375 -0.35551205499
    0.709603915838 0.261822748518 -0.708255743753
    -0.807946454398 0.400683490581 -0.552613648406
    0.644266703791 0.488620682968 0.306433825245
    -0.118854287873 0.783013935448 0.494885588915
    -0.220263605438 0.215540561199 -0.0073199163298
    -0.855989474375 -0.551081482235 -0.278009051646
    -0.259246569632 -0.0611677999136 -0.128371327595
    -0.132579553696 -0.222568827913 -0.986114802595
    0.984232692372 -0.641717272691 0.862013126995
    -0.654348702613 0.400872172798 0.788140541201
    0.517702578174 0.365014319396 -0.117869019299
    0.992486012305 -0.109567646356 0.622815715821
    -0.0273728766565 0.121439908807 -0.61570410313
    0.952906308668 -0.502657359076 0.320954799732
    0.888967775882 0.571373946096 -0.136100692819
    -0.620616178903 0.297997865821 -0.93851915767
    0.291464151365 0.932042968611 0.806129661827
    -0.416841189827 0.362008230777 -0.74989727044
    0.642249667991 -0.0336621425714 0.272744324045
    0.485199134175 -0.287466202707 -0.232886331077
    -0.227999524788 -0.061173201458 -0.0256776892696
    -0.977992729272 0.106154820902 -0.253048977972
    0.422186318931 -0.393941732991 -0.882671977802
    0.278965469258 0.585189267483 0.526450343003
    0.997770915833 0.566361362092 -0.333714742091
    -0.374209020425 0.885151605444 0.452954419394
    0.885642635414 0.185969462008 -0.112709788372
    0.782047892379 -0.134478637418 0.537429962013
    -0.0792014236099 0.743971481984 0.440842738503
    0.994511326301 0.889882853096 -0.770169635472
    -0.0887998386719 0.505506475622 -0.570144624048
    0.290854140436 0.148980199975 -0.792665188375
    0.749255637478 -0.0394625268762 -0.0950324095289
    0.0926364309243 0.0582506838382 0.0614565745966
    0.676758580825 0.782888288934 -0.723560141471
    0.0953751245777 0.76282820591 0.5188573463
    0.178653163768 0.943298357293 -0.121810929997
    0.645472127642 -0.036368572515 0.588801848864
    0.951306175184 -0.547819585036 0.921033746506
    -0.0804045639334 0.297769564058 0.122951821523
    -0.790584041622 -0.549943818542 0.510958390072
    0.495621977064 -0.0295882153947 0.664155725728
    0.813699779269 -0.899001889672 -0.852830975861
    -0.736284626086 0.363728266213 -0.768428083565
    0.267217868772 -0.485676017332 -0.123858168599
    0.42743799092 -0.567564808682 -0.129450913924
    -0.0673218306716 -0.658443028006 -0.478149122167
    0.421641840261 -0.568774522379 0.450961841517
    0.144970199982 -0.83316568579 -0.565147744731
    0.27964724338 -0.00672970113563 0.363862422649
    -0.704979951344 0.888324820369 -0.689342482694
    -0.173092933424 -0.287505887655 0.374489044591
    0.190376449566 0.936171307129 -0.1110113821
    0.865890537491 -0.531510540059 -0.247864022152
    0.426926305505 0.025587031541 -0.167234937529
    -0.295621045109 -0.547851191126 -0.322419213509
    0.808638650482 -0.151977551295 0.58869982716
    0.211463683568 0.317254729139 -0.48467144724
    0.674630286101 -0.729016470803 0.565196051888
    -0.241827350487 -0.292548094617 0.34960625571
    0.364717492832 0.527107368314 0.633090850589
    -0.4592182038 -0.452160551335 0.157944473719
    -0.100646878324 0.42614950834 0.92244213188
    0.87170805566 -0.412395925458 0.315606797966
    0.189213138607 -0.114997690762 -0.0531905514954
    -0.502173745801 -0.797016853219 -0.478595365858
    0.365438132737 -0.611208733051 0.346007704813
    0.59919792879 0.0655092996423 -0.118991085102
    -0.198242707124 0.688680752444 -0.878375826973
    -0.253036617886 0.119281286195 0.796062902117
    -0.385812248589 -0.26614389759 0.0954545811546
    -0.493140020544 -0.440839508564 0.929280404348
    0.799898035879 -0.528346672056 0.756752159658
    -0.217101123559 -0.693651437815 -0.744593858367
    0.980824334555 0.874466949679 -0.32818307439
    0.374405084039 0.0247081462007 -0.936559694376
    0.525361508845 -0.639212556245 -0.652247743782
    -0.887525558845 -0.825705157592 -0.964696203123
    0.159056622469 -0.96749641061 -0.0567795485653
    -0.446376400876 0.661466198916 -0.70596865281
    0.0684249999253 0.502533537636 -0.28981864645
    -0.94493852232 0.995275883752 0.524968821404
    0.301509434562 0.547717056474 -0.342834605514
    0.249571265971 -0.217717489941 -0.540202533141
    -0.222951515061 -0.19944002542 -0.706808710896
    -0.954527450731 0.592972468938 0.708394933083
    0.968699309976 -0.548691483162 0.784075951038
    -0.0064631270157 0.0332749234975 0.955552016069
    -0.420727145603 -0.983806358448 0.481995976975
    0.197849678457 -0.574553251512 -0.805544450994
    -0.248045081348 -0.0564028905807 -0.92193326665
    0.567691932307 -0.730539561358 -0.424517469506
    0.963081568224 -0.2746542056 0.765505096933
    0.400525185017 -0.287062736602 0.877996522969
    0.86345342996 -0.48178217823 -0.686572920786
    0.184922240694 0.61651197363 0.546449176884
    -0.0976694593006 -0.609152633841 -0.396060394633
    -0.0160581650805 -0.473854164751 -0.583332806986
    -0.533311178025 0.882732793426 0.462220297888
    0.200461838691 0.750427872064 -0.991699516287
    -0.658344331458 -0.491198556488 -0.453377465678
    0.744184502031 -0.075701989477 0.5222410869
    -0.377247450417 0.157912534306 -0.34054480205
    0.88605721524 -0.333288859724 -0.338256575598
    0.940316856785 0.755305620296 0.22077359715
    0.209015015291 -0.96489548311 0.999456119338
    0.342780267165 -0.972573868848 0.474099760092
    0.390278009526 0.255040300888 -0.189344168529
    -0.341417018441 0.474379386305 0.688081043562
    0.149568928737 0.746225669723 0.5734748293
    0.0909959393447 -0.733046129722 0.226298661663
    -0.944167506565 0.572947285277 0.567091030908
    0.33219073118 -0.15267735624 -0.660065346622
    -0.778025995665 0.188480564586 0.750698973789
    -0.0392304496382 0.956809790298 0.751153488758
    -0.488638006245 -0.933037909325 0.0712854030192
    0.934932833929 -0.0833267807655 -0.3142858008
    0.34865845195 -0.445076596857 -0.248662212325
    -0.0092691138901 0.744002593994 0.170448618897
    -0.741946919421 0.323980063371 0.611181477448
    0.347001175556 -0.332067017033 -0.543099166936
    -0.883705416132 0.741184271736 -0.407466131643
    -0.686125679922 0.288738709736 -0.55125851988
    -0.144206940678 -0.712049382397 -0.986332643799
    0.551382283004 -0.391390967906 0.644289713394
    -0.562876829423 0.455362669682 -0.0104677479267
    -0.185556277863 -0.281585787902 0.671335960322
    0.432606070184 -0.922335610173 0.498852534836
    -0.198386198519 0.742943872617 -0.573151296426
    -0.951317794704 -0.598707470847 -0.0713718715142
    -0.00941558943292 0.784621523255 -0.217442370508
    0.47406636901 0.871532402655 0.115559463655
    -0.983588406992 -0.0232893274986 -0.435323682481
    0.830948429409 -0.450093562629 0.757747922069
    0.764103640612 0.0546883207934 0.968569525754
    -0.211573645439 0.829444169725 0.231154066213
    0.932916847704 0.769417254546 0.393515546439
    0.33140838629 -0.534258598943 0.584529451299
    0.0511518746919 -0.78777746572 0.90225404787
    0.0913918943351 0.0601332884906 -0.250751685716
    0.0285138882308 0.241338724736 -0.0534826629376
    0.435872785371 0.995019833029 0.694022564526
    -0.0602804962831 0.570238520579 0.971438282381
    -0.0563358588951 -0.532696113409 -0.978639928438

#Definition of the planewave basis set
ecut 20.0         # Maximal plane-wave kinetic energy cut-off, in Hartree

#Definition of the k-point grid
kptopt 0          # Enter the k points manually 
nkpt 1            # Only one k point is needed for isolated system,
                  # taken by default to be 0.0 0.0 0.0

#Definition of the SCF procedure
nstep 5          # Maximal number of SCF cycles
toldfe 1.0d-12     # Will stop when, twice in a row, the difference 
                  # between two consecutive evaluations of total energy 
                  # differ by less than toldfe (in Hartree) 
                  # This value is way too large for most realistic studies of materials
diemac 2.0        # Although this is not mandatory, it is worth to
                  # precondition the SCF cycle. The model dielectric
                  # function used as the standard preconditioner
                  # is described in the "dielng" input variable section.
                  # Here, we follow the prescriptions for molecules 
                  # in a big box


## After modifying the following section, one might need to regenerate the pickle database with runtests.py -r
#%%<BEGIN TEST_INFO>
#%% [setup]
#%% executable = abinit
#%% [files]
#%% files_to_test = 
#%%   tbase1_1.out, tolnlines=  0, tolabs=  0.000e+00, tolrel=  0.000e+00
#%% psp_files =  01h.pspgth
#%% [paral_info]
#%% max_nprocs = 1
#%% [extra_info]
#%% authors = Unknown
#%% keywords = 
#%% description = H2 molecule in a big box
#%%<END TEST_INFO>
