# grey tin (alpha-tin, nonmetallic)
# computation of Fermi contact at Sn site

toldfe 1.0D-8

prtfc 1

ecut 10
pawecutdg 20

kptrlatt        6    6   -6     -6    6   -6     -6    6    6


#**************************************************************************************
#*                   Generated by cif2cell 1.2.10 2018-06-05 13:42                    *
#*   T. Bjorkman, Comp. Phys. Commun. 182, 1183-1186 (2011). Please cite generously.  *
#*                                                                                    *
#*                 Data obtained from ICSD. Reference number : 40039                  *
#*                                 Sn   (Tin - alpha)                                 *
#* Thewlis, J. and Davey, A.R., Nature (London, United Kingdom) 174, 1011-1011 (1954) *
#**************************************************************************************
# Structural parameters
acell    3*12.2628106081  

rprim    0.000000000000000   0.500000000000000   0.500000000000000 
         0.500000000000000   0.000000000000000   0.500000000000000 
         0.500000000000000   0.500000000000000   0.000000000000000 
       
ntypat   1  
znucl    50  
natom    50
typat
    1 1 1 1 1 1 1 1 1 1
    1 1 1 1 1 1 1 1 1 1
    1 1 1 1 1 1 1 1 1 1
    1 1 1 1 1 1 1 1 1 1
    1 1 1 1 1 1 1 1 1 1
xred
    -0.946189087716 -0.70602918188 0.666285596874
    -0.53309086402 0.369945246394 -0.987125156075
    -0.334586609266 -0.781861566195 -0.030283056588
    -0.930853546142 0.423639781761 0.289748696642
    -0.312009473119 -0.398087441694 0.118411979299
    0.164373285106 -0.477413393392 -0.604849331216
    0.135922241134 -0.475738708055 -0.485273151582
    -0.171677820187 0.114593331039 0.67141464391
    -0.0395475275821 -0.0807258492042 0.621083297207
    -0.735542330712 0.157914921171 0.282416154995
    -0.0609303080906 0.434249885331 0.35138901109
    0.758514333576 0.0534650550426 -0.277636146124
    -0.325909858872 0.619041417822 -0.613376415229
    -0.395926248986 0.431794421372 0.949105223354
    0.832414897786 0.44320786752 -0.720190869865
    -0.0522511465899 0.940686079517 -0.908326654719
    0.770075270152 0.571350127794 0.391440992056
    -0.362409455688 -0.301157201039 0.806001415512
    -0.147768183809 0.514353695091 -0.394542432895
    0.149826683578 -0.773547381934 -0.798478039609
    0.411619459187 -0.723784298933 0.12862578448
    -0.270526930508 -0.416732168134 0.364284871824
    -0.565448753027 -0.0305325962709 -0.396051400701
    -0.0400487388793 0.90328737119 -0.311409731631
    -0.389831537853 0.355535376473 0.53470143097
    -0.00218647875442 0.998733561881 -0.101710338333
    -0.0637236169304 0.310695265371 -0.796616690689
    0.220835658892 -0.714793604931 0.293500747212
    0.0688594516312 0.562756040355 -0.31847185447
    0.277256918641 0.951289267509 0.76161601249
    0.696906709204 0.790254245137 0.0532806985186
    -0.674396589099 -0.982134225789 -0.0982921895945
    -0.936207612138 0.276427426555 -0.476669484201
    -0.00616179631962 0.081447601059 -0.0743655245554
    -0.947094404241 0.064035320473 -0.999015832019
    -0.339187838998 0.481574224878 -0.938601974271
    -0.0597232808014 -0.502020784433 0.897163534545
    -0.0519107220007 -0.521214654074 0.227298209031
    -0.656831117901 0.523844371706 0.614013106692
    0.810572900581 0.819816174053 -0.0398104895764
    0.491418549196 -0.753765600081 0.995350810959
    0.377754911827 -0.438238195027 0.943962521631
    0.133907829098 -0.349157943891 0.682161979135
    -0.577800994913 0.977735086616 0.930568419342
    0.380923556989 -0.552834239339 0.593443988181
    0.752702445102 0.500745013805 -0.114444281369
    -0.338860743459 0.360990416902 -0.100765316125
    0.0917535522401 -0.553312025815 0.185096731618
    0.854524398699 0.988653715025 -0.516660916084
    -0.0280576308024 0.0719650044641 0.0766749897109
pawovlp -1
## After modifying the following section, one might need to regenerate the pickle database with runtests.py -r
#%%<BEGIN TEST_INFO>
#%% [setup]
#%% executable = abinit
#%% [files]
#%% files_to_test = 
#%%   tnuc_3.out, tolnlines=  2, tolabs=  6.000e-10, tolrel=  3.000e-10
#%% psp_files = Sn-GGA-PBE-rpaw-2.70.abinit
#%% [paral_info]
#%% max_nprocs = 4
#%% [extra_info]
#%% authors = J. Zwanziger
#%% keywords = PAW
#%% description = 
#%% topics = SmartSymm
#%%<END TEST_INFO>
