# H2 molecule in a big box
#
# In this input file, the location of the information on this or that line
# is not important : a keyword is located by the parser, and the related
# information should follow. 
# The "#" symbol indicates the beginning of a comment : the remaining
# of the line will be skipped.

#Definition of the unit cell
acell 10 10 10    # The keyword "acell" refers to the
                  # lengths of the primitive vectors (in Bohr)
#rprim 1 0 0  0 1 0  0 0 1 # This line, defining orthogonal primitive vectors,
                           # is commented, because it is precisely the default value of rprim

#Definition of the atom types
ntypat 2          # There is only one type of atom
znucl 1 8          # The keyword "znucl" refers to the atomic number of the 
                  # possible type(s) of atom. The pseudopotential(s) 
                  # mentioned in the "files" file must correspond
                  # to the type(s) of atom. Here, the only type is Hydrogen.
                         

#Definition of the atoms
natom 180
typat
    1 1 1 1 1 1 1 1 1 1
    1 1 1 1 1 1 1 1 1 1
    2 2 2 2 2 2 2 2 2 2
    1 1 1 1 1 1 1 1 1 1
    1 1 1 1 1 1 1 1 1 1
    2 2 2 2 2 2 2 2 2 2
    1 1 1 1 1 1 1 1 1 1
    1 1 1 1 1 1 1 1 1 1
    2 2 2 2 2 2 2 2 2 2
    1 1 1 1 1 1 1 1 1 1
    1 1 1 1 1 1 1 1 1 1
    2 2 2 2 2 2 2 2 2 2
    1 1 1 1 1 1 1 1 1 1
    1 1 1 1 1 1 1 1 1 1
    2 2 2 2 2 2 2 2 2 2
    1 1 1 1 1 1 1 1 1 1
    1 1 1 1 1 1 1 1 1 1
    2 2 2 2 2 2 2 2 2 2
xcart
    0.321158298679 -0.585168795238 0.326599901571
    0.629987664119 0.491655021253 -0.309437628213
    0.544466598677 0.476595997938 0.140995866216
    0.0486845796468 0.995724864196 0.308199987168
    0.212184805269 0.999125774147 0.950693257375
    0.113972934608 0.289678429027 -0.440473228308
    -0.951327400189 0.720041080544 0.86342116912
    -0.441721283839 0.615058401692 0.145805652498
    -0.228955929456 -0.803041260001 -0.105618018612
    0.600290654506 -0.180540934744 0.847935525648
    -0.0967728555824 0.655778196643 -0.418671820529
    0.0825192727034 -0.722370728755 0.564725838531
    -0.119306693844 0.378962274195 0.120443493863
    -0.902255722363 -0.603640119344 -0.857481491351
    -0.27504639289 0.298831162268 -0.812261827556
    0.904750181596 0.893746196325 0.948752850516
    -0.405937248271 0.776841491401 0.428021148098
    -0.727152194433 -0.264797594599 -0.569333410612
    -0.514014369013 0.0549778137496 0.783860587534
    -0.377798164002 0.203660402867 -0.600487519355
    -0.523643315222 -0.325910468656 -0.541347688915
    0.157993346838 0.777700738601 -0.0527305259332
    -0.382853770876 -0.797130399905 0.699929205531
    -0.514542234555 0.802403753462 0.00895111936538
    -0.952062282775 0.416906712908 -0.393237351738
    -0.491764836927 -0.72828418327 -0.69024150428
    -0.917776576208 -0.479577619374 -0.62689285566
    -0.0461009132502 -0.599631611172 -0.439922023252
    -0.568400470556 -0.812611799701 0.62339622378
    0.697133604757 -0.717557221282 0.302168122649
    -0.882873286379 0.550061107536 -0.425144854525
    0.0118424184848 0.357948188366 0.274278081792
    -0.212064314281 0.742122817488 0.589295427981
    -0.662182110994 -0.14786594269 -0.924024345926
    -0.272757040349 -0.220658132377 -0.351065941154
    -0.628680376697 0.784517595833 0.502449861522
    -0.389802547966 0.770294027087 0.406390381386
    0.835689264515 0.0341231901821 -0.468324389145
    0.76166041063 -0.598160626601 0.462400887436
    -0.48383401944 0.182381813913 -0.830047584541
    0.872231259941 0.0176305661888 -0.844036090291
    -0.323831274924 -0.568614147929 0.383648389575
    -0.936775104022 0.676618406109 -0.296907057788
    0.0358817195216 -0.367507028094 -0.61248532896
    -0.858849841282 -0.421635126329 0.871967693935
    -0.442704724001 0.259798488695 0.500922171326
    -0.929473273817 0.677594099093 0.829310287851
    0.531473209442 0.349856071932 -0.0935406710891
    0.7889184104 0.303177382119 -0.564410575676
    0.649079972055 0.570714447642 -0.514736382141
    0.457280832418 0.931752327743 0.23128342081
    0.479459273043 -0.89976954311 -0.688821254005
    -0.503507987166 -0.157522522262 0.692799740831
    -0.109482244203 0.300492391315 -0.35878544402
    -0.822189767019 -0.818816783527 0.669184094341
    0.528458228219 0.101883434707 -0.374560536185
    0.23911905394 0.426491102543 0.0777359940728
    0.453648953846 -0.389871328208 -0.20132576505
    0.390482952783 0.0101544904496 0.145355806043
    0.992843600648 0.0314978352089 0.959369867243
    -0.718244903441 -0.123957839727 -0.0404434969191
    0.448462793418 0.992755621988 0.781361676835
    0.905881649692 -0.974696472245 0.686816237991
    0.313482526069 -0.395206540601 -0.566371930697
    0.126649641776 -0.633573300101 0.799391666805
    -0.750932011709 -0.0243464746827 -0.312754318146
    0.359404668175 0.0286154630611 -0.480344068028
    -0.0290289715322 -0.941556451165 -0.356268921253
    0.45475370894 -0.484307641228 0.915686136671
    -0.248900975276 -0.834039640445 0.0783453393889
    -0.784497551515 0.691727343906 -0.345311939694
    0.564849757882 -0.917499624649 0.940227825428
    -0.656641612296 0.674555673334 -0.796651252201
    0.992883811838 0.521477212795 0.307612972186
    0.461562917143 -0.93238078433 -0.15468575706
    0.965973388796 -0.255384650475 -0.95051541822
    -0.871422663801 0.191164523824 0.909345329818
    0.621137676258 0.654580517527 0.906881388234
    0.11970699856 -0.23470526742 -0.809546101783
    -0.60225624216 0.195852208392 -0.827090282705
    -0.992913087013 -0.576634060554 -0.483844729949
    -0.823048690364 -0.688556675691 0.980965291088
    0.342556061583 -0.532097560722 0.563099685858
    0.176168452761 -0.477746963782 0.112631894108
    0.880923617852 -0.694102620048 0.586524334065
    0.356878023047 0.223859327302 0.893119047006
    0.509404638099 -0.447446526059 -0.524031055781
    -0.107212036988 0.195109039879 -0.480345057333
    -0.393006860627 -0.849068373245 -0.9851073745
    0.0383576917936 -0.860831845871 0.264163510281
    -0.0762223146007 -0.828959048685 0.267155386814
    -0.449187600144 -0.0266296518523 -0.474419163435
    -0.655811611384 -0.627605965581 -0.151820373973
    -0.659134253812 -0.325752093946 -0.488925726571
    -0.795649685176 -0.926066578042 0.420610162446
    0.596929058414 0.768676339956 0.812406662143
    0.848530798057 -0.296288052638 0.138287570382
    -0.551085807495 0.946436206698 -0.538231955133
    0.416516368147 -0.305057227147 0.0422243787044
    0.886651462139 0.0980889996664 -0.49547408541
    -0.714611459964 -0.496891570754 0.36121703379
    0.811879838653 -0.545154760869 0.501231012663
    0.20407685328 0.972800455147 -0.0287779157065
    0.378893666958 -0.0167011837587 0.398141228956
    0.901980769469 -0.84056334698 0.752151449064
    -0.79181398934 0.849139312488 0.109995757931
    0.0161614807327 -0.556450757483 -0.285959954768
    0.535434613143 0.0332298187523 -0.700223383188
    0.176456010209 0.290002508195 -0.890550346007
    -0.110793621621 -0.948041729516 0.726027345762
    -0.226296313789 0.556238026882 -0.318125532174
    -0.461587791551 0.330154279964 -0.944150862644
    0.0607357678891 -0.295166286517 0.570104586437
    -0.278032848479 -0.435386374731 -0.435202216324
    0.0762298881199 0.0547414055957 0.663275472087
    0.893883523689 -0.528385883275 0.280199545425
    -0.58264579023 -0.0223323273962 -0.830589361511
    -0.242538802385 0.59444177808 0.743509572111
    0.529330564527 0.876303012009 0.0945292064528
    0.0779430859038 0.154819624088 -0.257101363302
    0.783847818406 0.520883003929 0.585214956063
    0.595975857231 0.88211325613 -0.6983453398
    0.46652596052 -0.408332081816 0.135614569682
    -0.0924678691376 0.141459480685 0.171265972144
    0.981394873038 -0.0897091884203 0.839335086382
    0.156596699571 0.595997402437 -0.654763649685
    -0.647311866051 -0.226596564921 0.907459380596
    0.193590596101 -0.419965984649 -0.74261592657
    0.554060460413 0.12679011088 -0.621584321705
    0.0576751303718 0.775346706625 -0.817011906452
    -0.549317273876 0.239910747453 -0.678765566744
    0.806626173463 0.4908328917 -0.416782649284
    -0.516507301891 0.140646304629 0.24331431102
    0.106381845837 -0.970531583768 -0.33169275973
    -0.517697596397 0.825606500706 -0.2356907563
    -0.252148278764 -0.408794672353 0.0503050870096
    0.0485921813688 -0.539066592888 0.278330277972
    -0.49206730793 0.283484040818 -0.661494281983
    0.0678506187478 -0.0168482119613 0.836731343962
    0.428266314637 0.467412111154 0.921986632647
    0.583182340806 0.677813145977 -0.957778026413
    -0.342711831723 0.312073384937 -0.482126228924
    -0.721092674949 0.589420102056 0.25673566968
    0.0542704556171 -0.72368328236 -0.919888826749
    0.773344732725 -0.899242120372 -0.374995389822
    -0.113049679411 0.776222674581 -0.0526450292359
    -0.371396399853 -0.665764831189 -0.155656527407
    -0.395017751125 -0.226660946526 -0.404569631492
    -0.556383693855 0.23763958358 -0.712624480932
    0.735503924824 -0.92952989529 -0.94797300454
    0.879271957826 -0.699343866289 0.799058061731
    -0.156969028674 -0.434973832141 -0.282765786764
    -0.657035391797 0.808470202311 0.459785798834
    -0.592571069566 -0.999256610582 0.929595290895
    0.408431465772 0.585404415537 0.925346183176
    -0.832263098321 0.960782982783 -0.996798381062
    0.962685721949 -0.0536934700804 -0.690236296546
    -0.764482967041 0.693042214569 0.687031863186
    0.977884606616 0.536063972251 0.125918818257
    -0.0655430380712 0.871888535304 0.921953103185
    0.755612245367 0.190437954518 0.360126843214
    0.471397813224 -0.0789296393649 -0.587930117737
    -0.641588038721 -0.884666221323 0.889289304255
    -0.893360376518 0.0177760027433 -0.0521919396557
    -0.556300895612 -0.939153737327 0.56081354544
    -0.88167186849 0.331639456416 -0.713267607406
    0.795453955712 -0.350721154067 -0.777743091113
    0.811860248737 0.562851435632 -0.771077461823
    -0.614006248547 -0.705838866195 0.491147508264
    0.156964356096 -0.963313161222 -0.943165163462
    0.593073803388 0.836787090705 0.117447439379
    -0.825164913141 0.998127458607 -0.172285120806
    0.458462954427 0.733763401389 0.478589896226
    0.150763074808 0.833003683367 -0.425409203563
    -0.982358889162 0.374670119659 0.503015368747
    0.655020139248 -0.321682799912 0.968006346698
    0.0907680830978 0.942043744102 -0.333596781473
    -0.100847498967 -0.0861535708646 0.779575825979
    0.847854085117 -0.337243810232 -0.452691827171
    -0.812071946531 -0.539679310774 -0.421138956202

#Definition of the planewave basis set
ecut 10.0         # Maximal plane-wave kinetic energy cut-off, in Hartree

#Definition of the k-point grid
kptopt 0          # Enter the k points manually 
nkpt 1            # Only one k point is needed for isolated system,
                  # taken by default to be 0.0 0.0 0.0

#Definition of the SCF procedure
nstep 3          # Maximal number of SCF cycles
toldfe 1.0d-12     # Will stop when, twice in a row, the difference 
                  # between two consecutive evaluations of total energy 
                  # differ by less than toldfe (in Hartree) 
                  # This value is way too large for most realistic studies of materials
diemac 2.0        # Although this is not mandatory, it is worth to
                  # precondition the SCF cycle. The model dielectric
                  # function used as the standard preconditioner
                  # is described in the "dielng" input variable section.
                  # Here, we follow the prescriptions for molecules 
                  # in a big box


## After modifying the following section, one might need to regenerate the pickle database with runtests.py -r
#%%<BEGIN TEST_INFO>
#%% [setup]
#%% executable = abinit
#%% [files]
#%% files_to_test = 
#%%   tbase1_1.out, tolnlines=  0, tolabs=  0.000e+00, tolrel=  0.000e+00
#%% psp_files =  01h.pspgth
#%% [paral_info]
#%% max_nprocs = 1
#%% [extra_info]
#%% authors = Unknown
#%% keywords = 
#%% description = H2 molecule in a big box
#%%<END TEST_INFO>
