# Rocksalt CaO bandstructure at symmetry points with
# PURELY EXPERIMENTAL self-interaction-corrected psp's

  ndtset  2

# Dataset 1 : self-consistent ground state calculation

 kptopt1  1
  ngkpt1  2 2 2
nshiftk1  4
 prtden1  1
 shiftk1  0.5 0.5 0.5
          0.5 0.0 0.0
          0.0 0.5 0.0
          0.0 0.0 0.5
 tolvrs1  1.0d-8

# Dataset 2 : the band structure

   iscf2  -2
 getden2  -1
  nband2  8

 kptopt2  0
   nkpt2  3
    kpt2    0.0  0.0  0.0   # Gamma point
            0.0  0.5  0.5   # X point
            0.5  0.0  0.0   # L point

 tolwfr2  1.0d-8
 enunit2  1       # Will output the eigenenergies in eV

# common input data

   acell  3*9.09
  diemac  10.0
    ecut  40.0
  ecutsm  0.0
   natom  29
nloc_alg  2
   nstep  3
  ntypat  2
   rprim  0.0  0.5  0.5
          0.5  0.0  0.5
          0.5  0.5  0.0
typat
    1 1 1 1 1 1 1 1 1
    2 2 2 2 2 2 2 2 2 2
    1 1 1 1 1 1 1 1 1 1
xred
    -0.78126200954 -0.407229637112 -0.407945547861
    -0.995844986124 -0.287761222038 -0.353249847286
    -0.488522754743 0.780604062784 -0.848682753901
    0.664480508358 -0.401002375538 0.044319451666
    0.259251050145 0.0808396364349 -0.184892247669
    0.163648943319 0.805735279773 -0.483519135514
    0.670932133258 0.28584397377 0.295545025961
    -0.053258954866 0.268910771105 -0.0325970673157
    -0.794942884041 0.0969636662259 -0.921515865168
    0.745938708021 0.840174899975 -0.705812731772
    0.129310393845 0.782154951882 -0.164180861715
    0.733000615518 0.45562651123 -0.187402083786
    0.649300458817 -0.341112284797 0.959852756345
    -0.307651573327 0.924273083125 -0.0185306175086
    -0.358013591064 0.67891269667 0.0411696812111
    0.335646157654 -0.129933939638 0.643547961089
    -0.857824835418 -0.308517458235 0.902083173214
    0.326163470629 -0.377075798248 0.551099630546
    -0.407430652681 0.724073697233 0.62966336932
    -0.548078422828 -0.497422787166 -0.168470598419
    0.305004112519 -0.163747110709 -0.121973567974
    0.53513881392 0.459069163525 0.667360488978
    -0.25883939777 0.191696341253 -0.00634562880787
    0.706247072829 -0.163270640784 0.179292072265
    0.828917161122 -0.140757382343 -0.521346368572
    -0.23468223512 0.879397295111 0.140196417146
    0.647028933284 -0.226600392669 0.876404759027
    0.184055926819 0.471958187516 0.866904737792
    0.100115366602 0.595817957208 0.0991393076738
  znucl   20  8

## After modifying the following section, one might need to regenerate the pickle database with runtests.py -r
#%%<BEGIN TEST_INFO>
#%% [setup]
#%% executable = abinit
#%% [files]
#%% files_to_test = 
#%%   t20.out, tolnlines = 1000, tolabs = 0.000e+00, tolrel = 0.000e+00, fld_options = -medium
#%% psp_files = 20ca_sic.drh, 8o_sic.drh
#%% [paral_info]
#%% max_nprocs = 2
#%% [extra_info]
#%% authors =  D.R. Hamann
#%% keywords = psp8
#%% description = 
#%%   Test of the pspcod=8 input format (contributed by D.R. Hamann)
#%%   This format is primarily intended to offer a flexible platform
#%%   for those who wish to experiment with their own features in
#%%   norm-conserving pseudopotentials.  A full description and discussion
#%%   is given on the ABINIT wiki 
#%%   https://wiki.abinit.org/doku.php?id=developers:pseudos:psp8_format
#%%.  This test case, CaO, is an
#%%   example of self-interaction-corrected pseudopotentials in the
#%%   style of D. Vogel, P. Krueger, and J. Pollmann, Phys. Rev. B 52,
#%%   14 316 (1995).  The bandgap (direct) in the test example, 11.2eV,
#%%   is in excellent agreement with experiment, but is rather strongly
#%%   dependent on the radius at which the self-interaction-correction
#%%   of Ca is (smoothly) cut off.  The sic pseudopotentials used in
#%%   this test should not be considered anything but early-stage
#%%   experiments and should not be used for any other purpose.
#%%<END TEST_INFO>
